&CONTROL
  calculation = 'scf',
  restart_mode = 'from_scratch',
  !tprnfor = .true.
  disk_io='none'
/
&SYSTEM
  ecutrho =   3.2000000000d+02,
  ecutwfc =   4.0000000000d+01,
  nat = 320,
  nosym = .true.,
  ibrav = 0,
  ntyp = 3,
/
&ELECTRONS
  conv_thr =   1.0000000000d-09,
  startingwfc = 'atomic+random'
  !tqr = .true.
/
&IONS
/
&CELL
/
ATOMIC_SPECIES
Ba  137.330000 Ba.pbe-spn-kjpaw_psl.1.0.0.UPF
O   15.999400 O.pbe-nl-kjpaw_psl.1.0.0.UPF
Ti  47.880000 Ti.pbe-spn-kjpaw_psl.1.0.0.UPF
K_POINTS automatic
1 1 1 0 0 0
ATOMIC_POSITIONS crystal
Ba       0.000000000   0.000000000   0.000000000
Ba       0.500000000   0.500000000   0.000000000
Ba       0.000000000   0.749999996   0.250000004
Ba       0.749999996   0.000000000   0.749999996
Ba       0.249999993   0.500000000   0.000000000
Ba       0.000000000   0.749999989   0.000000000
Ba       0.500000000   0.250000001   0.749999999
Ba       0.749999996   0.250000004   0.000000000
Ba       0.750000007   0.000000000   0.500000000
Ba       0.000000000   0.500000000   0.750000007
Ba       0.750000001   0.249999999   0.249999999
Ba       0.000000000   0.500000000   0.500000000
Ba       0.500000000   0.750000007   0.000000000
Ba       0.749999999   0.250000001   0.500000000
Ba       0.000000000   0.500000000   0.249999993
Ba       0.249999996   0.500000000   0.500000000
Ba       0.750000001   0.249999999   0.750000001
Ba       0.250000001   0.500000000   0.250000001
Ba       0.500000000   0.250000001   0.250000001
Ba       0.249999999   0.249999999   0.750000001
Ba       0.749999996   0.000000000   0.250000004
Ba       0.250000004   0.250000004   0.000000000
Ba       0.250000004   0.000000000   0.749999996
Ba       0.500000000   0.500000000   0.750000004
Ba       0.500000000   0.749999999   0.250000001
Ba       0.249999993   0.000000000   0.500000000
Ba       0.249999999   0.249999999   0.249999999
Ba       0.500000000   0.750000004   0.500000000
Ba       0.000000000   0.750000007   0.500000000
Ba       0.250000004   0.000000000   0.250000004
Ba       0.500000000   0.749999999   0.749999999
Ba       0.250000011   0.000000000   0.000000000
Ba       0.500000000   0.000000000   0.000000000
Ba       0.250000001   0.250000001   0.500000000
Ba       0.749999989   0.000000000   0.000000000
Ba       0.000000000   0.749999996   0.749999996
Ba       0.500000000   0.500000000   0.249999996
Ba       0.500000000   0.500000000   0.500000000
Ba       0.000000000   0.500000000   0.000000000
Ba       0.500000000   0.249999996   0.500000000
Ba       0.249999999   0.750000001   0.249999999
Ba       0.749999996   0.749999996   0.000000000
Ba       0.750000001   0.750000001   0.249999999
Ba       0.250000001   0.749999999   0.500000000
Ba       0.000000000   0.250000011   0.000000000
Ba       0.000000000   0.000000000   0.500000000
Ba       0.749999999   0.500000000   0.749999999
Ba       0.500000000   0.000000000   0.249999993
Ba       0.500000000   0.000000000   0.750000007
Ba       0.000000000   0.250000004   0.250000004
Ba       0.749999999   0.749999999   0.500000000
Ba       0.500000000   0.000000000   0.500000000
Ba       0.250000004   0.749999996   0.000000000
Ba       0.750000004   0.500000000   0.500000000
Ba       0.000000000   0.000000000   0.749999989
Ba       0.000000000   0.249999993   0.500000000
Ba       0.750000007   0.500000000   0.000000000
Ba       0.250000001   0.500000000   0.749999999
Ba       0.749999999   0.500000000   0.250000001
Ba       0.249999999   0.750000001   0.750000001
Ba       0.500000000   0.249999993   0.000000000
Ba       0.000000000   0.000000000   0.250000011
Ba       0.750000001   0.750000001   0.750000001
Ba       0.000000000   0.250000004   0.749999996
Ti       0.375000001   0.875000000   0.375000001
Ti       0.125000001   0.374999999   0.125000001
Ti       0.874999999   0.625000001   0.874999999
Ti       0.125000000   0.375000001   0.375000001
Ti       0.875000000   0.624999999   0.624999999
Ti       0.625000001   0.125000001   0.874999999
Ti       0.374999999   0.874999999   0.125000001
Ti       0.375000002   0.375000002   0.375000002
Ti       0.375000001   0.125000000   0.624999999
Ti       0.624999999   0.125000000   0.624999999
Ti       0.875000002   0.875000002   0.124999998
Ti       0.125000000   0.375000001   0.624999999
Ti       0.124999998   0.124999998   0.124999998
Ti       0.875000002   0.875000002   0.875000002
Ti       0.625000001   0.125000001   0.125000001
Ti       0.374999999   0.874999999   0.874999999
Ti       0.625000001   0.874999999   0.125000001
Ti       0.125000001   0.125000001   0.374999999
Ti       0.874999999   0.874999999   0.625000001
Ti       0.374999999   0.125000001   0.874999999
Ti       0.375000001   0.375000001   0.125000000
Ti       0.624999999   0.125000000   0.375000001
Ti       0.125000001   0.125000001   0.625000001
Ti       0.874999999   0.874999999   0.374999999
Ti       0.375000001   0.875000000   0.624999999
Ti       0.624999999   0.624999999   0.875000000
Ti       0.124999998   0.124999998   0.875000002
Ti       0.624999999   0.875000000   0.375000001
Ti       0.875000000   0.624999999   0.375000001
Ti       0.874999999   0.125000001   0.374999999
Ti       0.375000001   0.125000000   0.375000001
Ti       0.125000001   0.874999999   0.625000001
Ti       0.375000001   0.375000001   0.875000000
Ti       0.624999999   0.624999999   0.125000000
Ti       0.874999999   0.125000001   0.625000001
Ti       0.125000001   0.874999999   0.374999999
Ti       0.124999998   0.875000002   0.875000002
Ti       0.375000001   0.624999999   0.125000000
Ti       0.875000002   0.124999998   0.875000002
Ti       0.124999998   0.875000002   0.124999998
Ti       0.624999999   0.375000001   0.875000000
Ti       0.875000002   0.124999998   0.124999998
Ti       0.624999998   0.624999998   0.375000002
Ti       0.874999999   0.374999999   0.125000001
Ti       0.125000001   0.625000001   0.874999999
Ti       0.375000002   0.375000002   0.624999998
Ti       0.375000002   0.624999998   0.375000002
Ti       0.624999998   0.375000002   0.624999998
Ti       0.624999999   0.375000001   0.125000000
Ti       0.874999999   0.625000001   0.125000001
Ti       0.375000001   0.624999999   0.875000000
Ti       0.624999998   0.624999998   0.624999998
Ti       0.125000001   0.625000001   0.125000001
Ti       0.874999999   0.374999999   0.874999999
Ti       0.624999999   0.875000000   0.624999999
Ti       0.624999998   0.375000002   0.375000002
Ti       0.125000000   0.624999999   0.375000001
Ti       0.875000000   0.375000001   0.624999999
Ti       0.625000001   0.874999999   0.874999999
Ti       0.374999999   0.125000001   0.125000001
Ti       0.125000000   0.624999999   0.624999999
Ti       0.875000000   0.375000001   0.375000001
Ti       0.375000002   0.624999998   0.624999998
Ti       0.125000001   0.374999999   0.874999999
O        0.500000000   0.125000000   0.375000000
O        0.625000000   0.000000000   0.375000000
O        0.625000000   0.125000000   0.000000000
O        0.625000000   0.500000000   0.375000000
O        0.625000000   0.500000000   0.625000000
O        0.625000000   0.125000000   0.250000000
O        0.625000000   0.625000000   0.500000000
O        0.625000000   0.000000000   0.125000000
O        0.500000000   0.625000000   0.625000000
O        0.500000000   0.125000000   0.125000000
O        0.625000000   0.625000000   0.750000000
O        0.500000000   0.625000000   0.375000000
O        0.625000000   0.250000000   0.125000000
O        0.500000000   0.625000000   0.125000000
O        0.625000000   0.375000000   0.250000000
O        0.625000000   0.375000000   0.000000000
O        0.625000000   0.250000000   0.375000000
O        0.500000000   0.375000000   0.375000000
O        0.500000000   0.125000000   0.875000000
O        0.625000000   0.375000000   0.500000000
O        0.625000000   0.000000000   0.875000000
O        0.625000000   0.250000000   0.625000000
O        0.500000000   0.375000000   0.625000000
O        0.625000000   0.125000000   0.750000000
O        0.625000000   0.375000000   0.750000000
O        0.500000000   0.125000000   0.625000000
O        0.625000000   0.250000000   0.875000000
O        0.500000000   0.375000000   0.875000000
O        0.625000000   0.000000000   0.625000000
O        0.625000000   0.625000000   0.000000000
O        0.500000000   0.375000000   0.125000000
O        0.625000000   0.125000000   0.500000000
O        0.625000000   0.500000000   0.125000000
O        0.625000000   0.625000000   0.250000000
O        0.625000000   0.500000000   0.875000000
O        0.625000000   0.750000000   0.875000000
O        0.625000000   0.875000000   0.000000000
O        0.750000000   0.375000000   0.625000000
O        0.875000000   0.375000000   0.750000000
O        0.875000000   0.250000001   0.875000000
O        0.750000000   0.375000000   0.875000000
O        0.875000000   0.625000000   0.000000000
O        0.875000000   0.500000000   0.125000000
O        0.750000000   0.625000000   0.125000000
O        0.875000000   0.625000000   0.250000000
O        0.875000000   0.500000000   0.375000000
O        0.750000000   0.625000000   0.375000000
O        0.875000000   0.625000000   0.500000000
O        0.875000000   0.500000000   0.625000000
O        0.875000000   0.250000000   0.625000000
O        0.750000000   0.625000000   0.625000000
O        0.875000000   0.500000000   0.875000000
O        0.750000000   0.625000000   0.875000000
O        0.875000000   0.875000000   0.000000000
O        0.875000000   0.749999999   0.125000000
O        0.749999999   0.875000000   0.125000000
O        0.875000000   0.875000000   0.250000001
O        0.875000000   0.750000000   0.375000000
O        0.750000000   0.875000000   0.375000000
O        0.875000000   0.875000000   0.500000000
O        0.875000000   0.750000000   0.625000000
O        0.750000000   0.875000000   0.625000000
O        0.875000000   0.875000000   0.749999999
O        0.875000000   0.625000000   0.750000000
O        0.500000000   0.625000000   0.875000000
O        0.875000000   0.375000000   0.500000000
O        0.875000000   0.250000000   0.375000000
O        0.625000000   0.750000000   0.125000000
O        0.500000000   0.875000000   0.125000000
O        0.625000000   0.875000000   0.250000000
O        0.625000000   0.750000000   0.375000000
O        0.500000000   0.875000000   0.375000000
O        0.625000000   0.875000000   0.500000000
O        0.625000000   0.750000000   0.625000000
O        0.500000000   0.875000000   0.625000000
O        0.625000000   0.875000000   0.750000000
O        0.500000000   0.875000000   0.875000000
O        0.875000000   0.125000000   0.000000000
O        0.875000000   0.000000000   0.125000000
O        0.750000000   0.375000000   0.375000000
O        0.749999999   0.125000000   0.125000000
O        0.875000000   0.000000000   0.375000000
O        0.750000000   0.125000000   0.375000000
O        0.875000000   0.125000000   0.500000000
O        0.875000000   0.000000000   0.625000000
O        0.750000000   0.125000000   0.625000000
O        0.875000000   0.125000000   0.749999999
O        0.875000000   0.000000000   0.875000000
O        0.749999999   0.125000000   0.875000000
O        0.875000000   0.375000000   0.000000000
O        0.875000000   0.250000001   0.125000000
O        0.750000000   0.375000000   0.125000000
O        0.875000000   0.375000000   0.250000000
O        0.875000000   0.125000000   0.250000001
O        0.875000000   0.749999999   0.875000000
O        0.250000001   0.875000000   0.875000000
O        0.375000000   0.875000000   0.750000000
O        0.125000000   0.625000000   0.500000000
O        0.125000000   0.500000000   0.625000000
O        0.000000000   0.625000000   0.625000000
O        0.125000000   0.625000000   0.750000000
O        0.125000000   0.500000000   0.875000000
O        0.000000000   0.625000000   0.875000000
O        0.125000000   0.875000000   0.000000000
O        0.125000000   0.749999999   0.125000000
O        0.000000000   0.875000000   0.125000000
O        0.125000000   0.875000000   0.250000001
O        0.125000000   0.750000000   0.375000000
O        0.000000000   0.875000000   0.375000000
O        0.000000000   0.625000000   0.375000000
O        0.125000000   0.875000000   0.500000000
O        0.000000000   0.875000000   0.625000000
O        0.125000000   0.875000000   0.749999999
O        0.375000000   0.750000000   0.875000000
O        0.000000000   0.875000000   0.875000000
O        0.375000000   0.125000000   0.000000000
O        0.375000000   0.000000000   0.125000000
O        0.250000001   0.125000000   0.125000000
O        0.375000000   0.125000000   0.250000000
O        0.375000000   0.000000000   0.375000000
O        0.250000000   0.125000000   0.375000000
O        0.375000000   0.125000000   0.500000000
O        0.375000000   0.000000000   0.625000000
O        0.125000000   0.750000000   0.625000000
O        0.250000000   0.125000000   0.625000000
O        0.125000000   0.500000000   0.375000000
O        0.000000000   0.625000000   0.125000000
O        0.125000000   0.125000000   0.000000000
O        0.125000000   0.000000000   0.125000000
O        0.000000000   0.125000000   0.125000000
O        0.125000000   0.125000000   0.250000001
O        0.125000000   0.000000000   0.375000000
O        0.000000000   0.125000000   0.375000000
O        0.125000000   0.125000000   0.500000000
O        0.125000000   0.000000000   0.625000000
O        0.000000000   0.125000000   0.625000000
O        0.125000000   0.125000000   0.749999999
O        0.125000000   0.000000000   0.875000000
O        0.000000000   0.125000000   0.875000000
O        0.125000000   0.625000000   0.250000000
O        0.125000000   0.375000000   0.000000000
O        0.000000000   0.375000000   0.125000000
O        0.125000000   0.375000000   0.250000000
O        0.125000000   0.250000000   0.375000000
O        0.000000000   0.375000000   0.375000000
O        0.125000000   0.375000000   0.500000000
O        0.125000000   0.250000000   0.625000000
O        0.000000000   0.375000000   0.625000000
O        0.125000000   0.375000000   0.750000000
O        0.125000000   0.250000001   0.875000000
O        0.000000000   0.375000000   0.875000000
O        0.125000000   0.625000000   0.000000000
O        0.125000000   0.500000000   0.125000000
O        0.125000000   0.250000001   0.125000000
O        0.375000000   0.125000000   0.750000000
O        0.125000000   0.749999999   0.875000000
O        0.250000001   0.125000000   0.875000000
O        0.250000000   0.375000000   0.875000000
O        0.375000000   0.625000000   0.000000000
O        0.375000000   0.500000000   0.125000000
O        0.250000000   0.625000000   0.125000000
O        0.375000000   0.625000000   0.250000000
O        0.375000000   0.000000000   0.875000000
O        0.250000000   0.625000000   0.375000000
O        0.375000000   0.625000000   0.500000000
O        0.375000000   0.500000000   0.625000000
O        0.250000000   0.625000000   0.625000000
O        0.375000000   0.250000000   0.875000000
O        0.375000000   0.625000000   0.750000000
O        0.250000000   0.625000000   0.875000000
O        0.375000000   0.875000000   0.000000000
O        0.375000000   0.750000000   0.125000000
O        0.250000001   0.875000000   0.125000000
O        0.375000000   0.875000000   0.250000000
O        0.375000000   0.750000000   0.375000000
O        0.250000000   0.875000000   0.375000000
O        0.375000000   0.875000000   0.500000000
O        0.375000000   0.750000000   0.625000000
O        0.250000000   0.875000000   0.625000000
O        0.375000000   0.500000000   0.875000000
O        0.375000000   0.375000000   0.750000000
O        0.375000000   0.500000000   0.375000000
O        0.749999999   0.875000000   0.875000000
O        0.250000000   0.375000000   0.625000000
O        0.375000000   0.375000000   0.000000000
O        0.375000000   0.250000000   0.625000000
O        0.375000000   0.375000000   0.250000000
O        0.375000000   0.375000000   0.500000000
O        0.250000000   0.375000000   0.375000000
O        0.375000000   0.250000000   0.375000000
O        0.250000000   0.375000000   0.125000000
O        0.375000000   0.250000000   0.125000000
CELL_PARAMETERS (angstrom)
  16.076815660   0.000000000   0.000000000
   0.000000000  16.076815660   0.000000000
   0.000000000   0.000000000  16.076815660
