&control
calculation='scf'
restart_mode='from_scratch',
tprnfor = .false.
tstress = .false.
verbosity = 'high'
/
&system
ibrav=0,
ntyp=10,
nspin = 2
starting_magnetization(1)=0.6,
starting_magnetization(2)=0.8,
starting_magnetization(3)=-0.8,
starting_magnetization(4)=-0.6,
occupations='smearing',
smearing='gauss',
degauss=0.01
/
&electrons
conv_thr = 1.0e-7
mixing_beta = 0.11
mixing_ndim = 20
mixing_mode = 'local-TF'
electron_maxstep = 20
/
ATOMIC_SPECIES
Fe1 56.0 Fe.pbesol-spn-rrkjus_psl.0.2.1.UPF
Fe2 56.0 Fe.pbesol-spn-rrkjus_psl.0.2.1.UPF
Fe3 56.0 Fe.pbesol-spn-rrkjus_psl.0.2.1.UPF
Fe4 56.0 Fe.pbesol-spn-rrkjus_psl.0.2.1.UPF
P1  31.0 P.pbesol-n-rrkjus_psl.0.1.UPF
O1  16.0 O.pbesol-n-rrkjus_psl.0.1.UPF
O2  16.0 O.pbesol-n-rrkjus_psl.0.1.UPF
O3  16.0 O.pbesol-n-rrkjus_psl.0.1.UPF
O4  16.0 O.pbesol-n-rrkjus_psl.0.1.UPF
Li   7.0 Li.pbesol-s-rrkjus_psl.0.2.1.UPF
ATOMIC_POSITIONS {crystal}
Fe1   0.0000000  0.0000000  0.0000000   
Fe2   0.4956262  0.0003982 -0.2228602   
Fe3  -0.0590845  0.2556537 -0.2565374   
Fe4   0.4365498  0.2560287 -0.4794056   
P1   -0.1811069  0.0067281 -0.2806014   
P1    0.6176688  0.2493292 -0.1987949   
P1    0.1252583  0.2509908 -0.0250581   
P1    0.3112829  0.0050513 -0.4543859   
O1   -0.1629035  0.0112489 -0.1211719   
O1    0.5994811  0.2447688 -0.3582283   
O1    0.1206605  0.2436350 -0.3663333   
O1    0.3158365  0.0124401 -0.1131178   
O2    0.1683693  0.0030957 -0.3976564   
O2    0.2681813  0.2530134 -0.0817774   
O2   -0.2386659  0.2485604 -0.1532212   
O2    0.6752248  0.0075420 -0.3261629   
O3   -0.1008607 -0.0920918 -0.3471759   
O3    0.5373936  0.3481472 -0.1322586   
O3    0.0459363  0.3533933 -0.0874007   
O3    0.3905360 -0.0973852 -0.3920434   
O4    0.5486865  0.1475484 -0.1184998   
O4   -0.1121078  0.1085057 -0.3608874   
O4    0.3788549  0.1091356 -0.3801709   
O4    0.0577235  0.1468787 -0.0992600   
Li   -0.2819985 -0.1250028 -0.4869108   
Li    0.2180014 -0.1250025 -0.2369129   
Li    0.2180014  0.1250025 -0.2369129   
Li   -0.2819985  0.1250028 -0.4869108   
Fe1  -0.0000229  0.0000112  0.4999886   
Fe2   0.4956419  0.0004024  0.2771164   
Fe3  -0.0590795  0.2556532  0.2434571   
Fe4   0.4365609  0.2560358  0.0205975   
P1   -0.1811073  0.0067371  0.2193875   
P1    0.6176770  0.2493331  0.3012117   
P1    0.1252425  0.2509917  0.4749379   
P1    0.3112856  0.0050585  0.0456157   
O1   -0.1629330  0.0112700  0.3788214   
O1    0.5994948  0.2447773  0.1417765   
O1    0.1206787  0.2436405  0.1336712   
O1    0.3158620  0.0124254  0.3868821   
O2    0.1683811  0.0030760  0.1023714   
O2    0.2681691  0.2529897  0.4182246   
O2   -0.2386600  0.2485703  0.3467889   
O2    0.6752318  0.0075459  0.1737996   
O3   -0.1008445 -0.0920863  0.1528450   
O3    0.5373881  0.3481428  0.3677529   
O3    0.0459420  0.3534051  0.4125989   
O3    0.3905730 -0.0973682  0.1079305   
O4    0.5486948  0.1475444  0.3814928   
O4   -0.1120984  0.1085100  0.1391028   
O4    0.3788483  0.1091485  0.1198277   
O4    0.0576954  0.1468885  0.4007285   
Li   -0.2819985 -0.1250028  0.0130892   
Li    0.2180014 -0.1250025  0.2630871   
Li    0.2180014  0.1250025  0.2630871   
Li   -0.2819985  0.1250028  0.0130892   
Fe1  -0.0000478  0.4999896 -0.0000125   
Fe2   0.4955807  0.5003873 -0.2229031   
Fe3  -0.0591127  0.7556469 -0.2565700   
Fe4   0.4365127  0.7560261 -0.4794255   
P1   -0.1811335  0.5067064 -0.2806233   
P1    0.6176498  0.7492909 -0.1988272   
P1    0.1252141  0.7509703 -0.0250630   
P1    0.3112259  0.5050481 -0.4543898   
O1   -0.1629487  0.5112263 -0.1211907   
O1    0.5994600  0.7447277 -0.3582610   
O1    0.1206365  0.7436374 -0.3663502   
O1    0.3157983  0.5124055 -0.1131266   
O2    0.1683237  0.5030844 -0.3976275   
O2    0.2681426  0.7529890 -0.0817655   
O2   -0.2386857  0.7485019 -0.1532560   
O2    0.6752017  0.5075042 -0.3262002   
O3   -0.1008631  0.4078936 -0.3471806   
O3    0.5373920  0.8481175 -0.1322881   
O3    0.0459154  0.8533880 -0.0873917   
O3    0.3905097  0.4026239 -0.3920542   
O4    0.5486485  0.6475174 -0.1185331   
O4   -0.1121402  0.6084874 -0.3609081   
O4    0.3787963  0.6091397 -0.3801927   
O4    0.0576769  0.6468681 -0.0992853   
Li   -0.2819985  0.3749972 -0.4869108   
Li    0.2180014  0.3749975 -0.2369129   
Li    0.2180014  0.6250026 -0.2369129   
Li   -0.2819985  0.6250028 -0.4869108   
Fe1  -0.0000532  0.5000048  0.4999786   
Fe2   0.4955643  0.5003862  0.2771164   
Fe3  -0.0591438  0.7556377  0.2434370   
Fe4   0.4365330  0.7560235  0.0205715   
P1   -0.1811534  0.5066938  0.2193766   
P1    0.6176331  0.7492983  0.3011838   
P1    0.1252139  0.7509963  0.4749196   
P1    0.3112456  0.5050442  0.0456064   
O1   -0.1629568  0.5112174  0.3788074   
O1    0.5994582  0.7447370  0.1417486   
O1    0.1206098  0.7435975  0.1336641   
O1    0.3157674  0.5124090  0.3868762   
O2    0.1683393  0.5030638  0.1023577   
O2    0.2681374  0.7529972  0.4181993   
O2   -0.2387049  0.7485137  0.3467648   
O2    0.6751809  0.5074936  0.1738075   
O3   -0.1008868  0.4078806  0.1528093   
O3    0.5373735  0.8481254  0.3677185   
O3    0.0459175  0.8534131  0.4125871   
O3    0.3905345  0.4026265  0.1079530   
O4    0.5486264  0.6475241  0.3814702   
O4   -0.1121578  0.6084744  0.1390923   
O4    0.3788032  0.6091385  0.1198096   
O4    0.0576546  0.6468921  0.4007222   
Li   -0.2819985  0.3749972  0.0130892   
Li    0.2180014  0.3749975  0.2630871   
Li    0.2180014  0.6250026  0.2630871   
Li   -0.2819985  0.6250028  0.0130892   
K_POINTS {automatic}
2 2 2 0 0 0
CELL_PARAMETERS (bohr)
  19.1666 0.0069454 -0.0262989
  0.00719902 22.3907 0.125622
  -0.024543 0.0999084 18.0181

!   0.982420   0.000356  -0.001348  
!   0.000369   1.147680   0.006439  
!  -0.001258   0.005121   0.923553  
!celldm(1) = 19.50953992
